c FILE: N20_K3_L100_unsat.cnf
c
c Generated randomly by kentnek.
c
c N = 20, K = 3, L = 100.
c
c NOTE: Unsatisfiable.
c
p cnf 20 100
20 8 -14 0
-1 -8 11 0
-6 13 14 0
-19 3 5 0
-18 19 10 0
-2 10 13 0
-17 -10 -12 0
2 13 15 0
-20 -6 13 0
9 12 15 0
-17 7 8 0
3 4 -14 0
18 -6 13 0
19 20 -14 0
-4 5 9 0
-17 18 9 0
20 8 15 0
18 19 -20 0
18 10 15 0
-18 -3 4 0
-7 10 14 0
-2 4 13 0
-8 10 -15 0
-16 -4 11 0
-9 11 13 0
1 -13 14 0
16 1 -15 0
-5 9 10 0
-2 11 13 0
-19 8 -15 0
-19 10 -12 0
-16 18 -11 0
16 -17 -4 0
17 19 9 0
-4 -5 -8 0
16 5 -6 0
-7 8 -12 0
2 -18 3 0
-17 20 -12 0
17 -19 20 0
-5 6 -13 0
-16 -19 -5 0
9 12 -14 0
-2 -18 11 0
16 6 7 0
16 -20 -14 0
-2 5 -14 0
-19 11 -15 0
-19 7 -10 0
12 -13 -14 0
16 17 20 0
18 -9 -11 0
-16 5 -8 0
18 9 14 0
-7 -8 10 0
4 -5 9 0
-16 -11 -14 0
-8 13 15 0
-8 -10 -13 0
-16 -3 -7 0
-3 -7 -11 0
1 -6 9 0
18 4 12 0
5 -6 8 0
-3 4 -9 0
-18 -9 -13 0
17 4 20 0
-19 20 14 0
-4 5 -14 0
-2 13 -15 0
-18 8 9 0
2 -19 -20 0
-2 3 14 0
1 2 11 0
1 -9 -13 0
1 -8 -14 0
-19 8 -13 0
19 5 -11 0
3 13 -14 0
17 -1 -8 0
16 -2 5 0
8 10 15 0
-2 8 10 0
-2 3 12 0
-19 -8 15 0
-6 -14 -15 0
-17 8 11 0
-1 -20 -6 0
20 6 8 0
-18 6 -10 0
1 3 -20 0
20 -4 15 0
6 -7 -11 0
1 -2 -13 0
16 -2 -5 0
-6 -9 -12 0
20 7 14 0
5 -9 15 0
-1 5 -10 0
17 18 4 0
